Version identifier: 22.1.1.0 | 2022-11-28 | 9160aff4d
CPXPARAM_Output_CloneLog                         -1
CPXPARAM_MIP_Tolerances_MIPGap                   0
Tried aggregator 3 times.
MIP Presolve eliminated 229 rows and 202 columns.
MIP Presolve modified 344 coefficients.
Aggregator did 176 substitutions.
Reduced MIP has 740 rows, 580 columns, and 1824 nonzeros.
Reduced MIP has 532 binaries, 48 generals, 0 SOSs, and 0 indicators.
Presolve time = 0.00 sec. (2.61 ticks)
Probing time = 0.00 sec. (0.37 ticks)
Tried aggregator 1 time.
Detecting symmetries...
Reduced MIP has 740 rows, 580 columns, and 1824 nonzeros.
Reduced MIP has 532 binaries, 48 generals, 0 SOSs, and 0 indicators.
Presolve time = 0.00 sec. (1.85 ticks)
Probing time = 0.00 sec. (0.39 ticks)
Clique table members: 1008.
MIP emphasis: balance optimality and feasibility.
MIP search method: dynamic search.
Parallel mode: deterministic, using up to 8 threads.
Root relaxation solution time = 0.00 sec. (3.44 ticks)

        Nodes                                         Cuts/
   Node  Left     Objective  IInf  Best Integer    Best Bound    ItCnt     Gap

      0     0       48.0000   317                     48.0000      357         
      0     0       48.0000   113                    Cuts: 23      405         
      0     0       48.0000   240                    Cuts: 51      503         
      0     0       48.0000   219                    Cuts: 32      591         
      0     0       48.0000   281                    Cuts: 50      668         
*     0+    0                           67.0000       48.0000            28.36%
*     0+    0                           63.0000       48.0000            23.81%
      0     0  -1.00000e+75     0       63.0000       48.0000      668   23.81%
*     0+    0                           60.0000       48.0000            20.00%
      0     2       48.0000   109       60.0000       48.0000      675   20.00%
Elapsed time = 0.09 sec. (116.21 ticks, tree = 0.02 MB, solutions = 3)
*    11+    1                           59.0000       48.0000            18.64%
*    22+    4                           57.0000       48.0000            15.79%
*  1204   755      integral     0       54.0000       48.0000     6297   11.11%
*  1285   817      integral     0       53.0000       48.0000     7540    9.43%
*  1602   792      integral     0       52.0000       48.0000     8433    7.69%
*  1757   810      integral     0       50.0000       48.0000     8959    4.00%
*  1853+  539                           48.0000       48.0000             0.00%

Clique cuts applied:  24
Cover cuts applied:  3
Implied bound cuts applied:  28
Mixed integer rounding cuts applied:  49
Zero-half cuts applied:  2

Root node processing (before b&c):
  Real time             =    0.09 sec. (116.05 ticks)
Parallel b&c, 8 threads:
  Real time             =    0.06 sec. (91.47 ticks)
  Sync time (average)   =    0.02 sec.
  Wait time (average)   =    0.00 sec.
                          ------------
Total (root+branch&cut) =    0.15 sec. (207.52 ticks)
Default row names c1, c2 ... being created.
